c generated by generate.py on 2024-12-24 05:44:40
c positive instance
p edge 60 129
e 0 12
e 0 17
e 0 36
e 0 39
e 1 49
e 1 58
e 3 16
e 3 17
e 3 21
e 3 30
e 3 41
e 4 15
e 4 16
e 4 23
e 4 24
e 4 27
e 4 34
e 4 42
e 4 59
e 5 12
e 6 28
e 7 18
e 7 20
e 7 33
e 7 37
e 7 45
e 8 23
e 8 30
e 8 44
e 8 52
e 9 14
e 9 34
e 10 45
e 10 51
e 11 20
e 11 24
e 11 41
e 11 58
e 13 24
e 13 25
e 13 43
e 14 24
e 14 41
e 15 17
e 15 18
e 15 26
e 15 33
e 15 45
e 15 49
e 15 51
e 15 58
e 16 31
e 16 41
e 16 49
e 16 55
e 17 23
e 17 32
e 18 19
e 18 36
e 18 37
e 18 39
e 18 54
e 19 34
e 19 53
e 20 35
e 20 37
e 20 44
e 20 50
e 20 53
e 21 53
e 21 59
e 22 24
e 22 42
e 23 28
e 23 38
e 24 29
e 24 34
e 24 45
e 24 50
e 25 29
e 25 43
e 25 49
e 27 51
e 27 53
e 27 57
e 28 43
e 28 44
e 28 46
e 29 34
e 29 36
e 29 47
e 29 54
e 29 56
e 30 31
e 30 42
e 31 34
e 31 35
e 31 54
e 32 43
e 32 50
e 32 53
e 33 43
e 33 51
e 33 59
e 34 56
e 35 43
e 35 54
e 36 40
e 36 53
e 38 42
e 38 44
e 38 50
e 38 51
e 38 59
e 39 40
e 39 41
e 39 43
e 40 52
e 40 57
e 41 59
e 42 53
e 43 45
e 45 48
e 46 50
e 46 51
e 46 52
e 48 54
e 51 55
e 51 57
